N = 5;

pezzi = [|
4, 3, 3, 3|
8, 8, 1, 2|
6, 5, 7, 3|
7, 3, 6, 0|
0, 1, 4, 5|
1, 1, 8, 6|
7, 6, 6, 9|
7, 2, 4, 1|
7, 8, 4, 8|
7, 3, 2, 2|
4, 9, 6, 5|
3, 1, 6, 1|
6, 2, 8, 1|
6, 2, 3, 4|
0, 1, 7, 5|
3, 1, 7, 3|
5, 9, 4, 6|
1, 4, 0, 6|
4, 9, 8, 1|
8, 5, 0, 9|
4, 6, 7, 8|
7, 3, 3, 3|
4, 4, 7, 3|
6, 5, 1, 3|
3, 6, 8, 2|];